c preprocessed version of pr124.tsp, 85 vertices, 240 edges
p td 85 240
1 0
75 0
80 0
71 0
81 0
2 1
1 74
1 75
80 1
3 2
4 2
32 2
2 31
2 74
80 2
3 4
3 5
79 3
80 3
5 4
25 4
28 4
4 33
4 32
5 6
5 7
5 20
5 23
5 25
79 5
7 6
8 6
6 18
6 20
7 8
7 9
79 7
9 8
10 8
11 8
8 13
8 18
12 8
9 10
79 9
10 11
79 10
12 11
79 11
12 13
12 14
12 45
12 46
12 68
12 69
13 14
13 15
13 16
13 17
13 18
15 14
14 45
16 15
15 45
17 16
16 45
18 17
19 17
17 45
17 44
18 19
18 20
20 19
21 19
19 44
20 21
20 22
20 23
22 21
21 44
21 43
23 22
24 22
22 43
23 24
23 25
25 24
26 24
24 43
25 26
25 27
25 28
27 26
26 43
28 27
29 27
27 43
27 42
27 36
27 41
28 29
28 33
28 34
30 29
34 29
29 36
31 30
30 34
30 35
30 36
32 31
31 35
31 36
31 37
31 77
31 74
31 73
33 32
32 35
33 34
33 35
35 34
37 36
36 41
36 40
36 39
38 37
72 37
77 37
37 39
38 39
38 72
38 55
57 38
71 38
40 39
39 54
39 55
41 40
42 40
40 54
40 53
40 51
40 52
41 42
43 42
42 49
42 50
42 51
44 43
45 43
43 47
43 48
43 49
44 45
45 46
45 47
47 46
46 68
46 66
48 47
47 66
49 48
48 66
50 49
49 66
49 65
51 50
50 65
50 64
62 50
63 50
52 51
61 51
62 51
53 52
56 52
59 52
58 52
60 52
61 52
53 54
53 55
53 56
54 55
55 56
57 55
57 56
58 56
57 58
59 57
71 57
59 58
60 59
60 61
70 60
62 61
70 61
62 63
62 70
63 64
70 63
65 64
64 67
66 65
65 67
66 67
68 66
69 68
71 72
71 75
71 76
71 78
71 81
73 72
76 72
72 77
74 73
73 77
73 76
74 75
74 76
76 75
78 79
78 80
81 78
79 80
81 80
82 67
82 66
82 68
82 83
82 69
82 84
83 84
83 64
83 67
83 63
84 12
84 69
